50 8
296 375
451 607
497 75
181 370
560 213
590 823
280 330
659 846
368 246
349 908
888 563
733 860
805 844
513 666
370 601
220 745
232 306
860 590
970 527
718 835
278 774
582 812
853 692
527 219
161 685
497 269
449 549
652 913
446 59
282 342
153 434
339 753
202 799
243 340
961 992
533 763
897 548
807 851
432 860
458 846
387 688
817 584
275 733
263 811
475 171
464 851
639 806
535 845
567 789
354 213
